resources/optional_labels.lp
\ LP format example

Minimize
x + 10 y
Subject To
r01:  x + y  >= 1

Binaries
 x y z a
End

