rust/resources/mps/optional_labels.mps
NAME        optional_labels
ROWS
 N  Obj
 G  HiGHS_R0
COLUMNS
    MARK0000  'MARKER'                 'INTORG'
    x         Obj       1
    x         HiGHS_R0  -1
    y         Obj       10
    y         HiGHS_R0  2
    z         Obj       0
    a         Obj       0
    MARK0001  'MARKER'                 'INTEND'
RHS
    RHS_V     HiGHS_R0  1
BOUNDS
 BV BOUND     x
 BV BOUND     y
 BV BOUND     z
 BV BOUND     a
ENDATA
